# deform by tension
#1 general
units           metal
dimension       3
atom_style      molecular
neighbor        0.3 bin

#2 structure
boundary        p p p
box tilt        large
read_data       lammps.dat_tersoff

#4 potentials
pair_style      hybrid/overlay drip tersoff

# Drip and Rebo between layer 1 & 2
pair_coeff   * *  drip C.drip   C
pair_coeff   * *  tersoff BNC.tersoff  C
