# deform by tension
#1 general
units           metal
dimension       3
atom_style      molecular
neighbor        0.3 bin

#2 structure
boundary        p p p
box tilt        large
read_data       /home/mshinjan/Phonons/MoirePhonons/Force_Constant_Generation/Examples/tblg_21.8/lammps.dat

#4 potentials
pair_style      hybrid/overlay drip rebo

# SW for layer 1
pair_coeff   * *  drip /home/mshinjan/Phonons/MoirePhonons/Force_Constant_Generation/Examples/tblg_21.8/C.drip   C
pair_coeff   * *  rebo /home/mshinjan/Phonons/MoirePhonons/Force_Constant_Generation/Examples/tblg_21.8/CH.rebo  C
